c ---- [ banner ] ------------------------------------------------------------
c
c Kissat SAT Solver
c 
c Copyright (c) 2021-2022 Armin Biere University of Freiburg
c Copyright (c) 2019-2021 Armin Biere Johannes Kepler University Linz
c 
c Version 3.0.0 97917ddf2b12adc6f63c7b2a5a403a1ee7d81836
c gcc (Ubuntu 9.4.0-1ubuntu1~20.04.1) 9.4.0 -W -Wall -O3 -DNDEBUG
c Fri Oct 7 14:23:58 PDT 2022 Linux jap-Lenovo-Yoga-C740-15IML 5.15.0-48-generic x86_64
c
c ---- [ parsing ] -----------------------------------------------------------
c
c opened and reading DIMACS file:
c
c   Pigeon6Holes4
c
c parsed 'p cnf 24 66' header
c closing input after reading 642 bytes
c finished parsing after 0.00 seconds
c
c ---- [ solving ] -----------------------------------------------------------
c
c  seconds switched rate      trail variables
c         MB reductions conflicts glue  remaining
c          level restarts redundant irredundant
c
c *  0.00  1 0 0 0  0 0   0   0 0% 0 66 24 96%
c {  0.00  1 0 0 0  0 0   0   0 0% 0 66 24 96%
c i  0.00  1 3 0 0  0 1  10   9 94% 1 66 23 92%
c i  0.00  1 4 0 0  0 1  31  28 94% 2 66 17 68%
c i  0.00  1 4 0 0  0 1  32  28 94% 2 66 15 60%
c i  0.00  1 4 0 0  0 1  33  28 94% 2 66 13 52%
c }  0.00  1 4 0 0  0 1  35  28 94% 2 66  0 0%
c 0  0.00  1 4 0 0  0 1  35  28 94% 2 66  0 0%
c
c ---- [ result ] ------------------------------------------------------------
c
s UNSATISFIABLE
c
c ---- [ profiling ] ---------------------------------------------------------
c
c           0.00   68.01 %  search
c           0.00   53.66 %  focused
c           0.00   12.56 %  parse
c           0.00    0.00 %  simplify
c =============================================
c           0.00  100.00 %  total
c
c ---- [ statistics ] --------------------------------------------------------
c
c conflicts:                               35            23026.32 per second
c decisions:                               43                1.23 per conflict
c propagations:                           392           257895    per second
c
c ---- [ resources ] ---------------------------------------------------------
c
c maximum-resident-set-size:           991232 bytes          1 MB
c process-time:                                              0.00 seconds
c
c ---- [ shutting down ] -----------------------------------------------------
c
c exit 20
